
******************************************************************************
This program contains Ipopt, a library for large-scale nonlinear optimization.
 Ipopt is released as open source code under the Eclipse Public License (EPL).
         For more information visit http://projects.coin-or.org/Ipopt

This version of Ipopt was compiled from source code available at
    https://github.com/IDAES/Ipopt as part of the Institute for the Design of
    Advanced Energy Systems Process Systems Engineering Framework (IDAES PSE
    Framework) Copyright (c) 2018-2019. See https://github.com/IDAES/idaes-pse.

This version of Ipopt was compiled using HSL, a collection of Fortran codes
    for large-scale scientific computation.  All technical papers, sales and
    publicity material resulting from use of the HSL codes within IPOPT must
    contain the following acknowledgement:
        HSL, a collection of Fortran codes for large-scale scientific
        computation. See http://www.hsl.rl.ac.uk.
******************************************************************************

This is Ipopt version 3.13.2, running with linear solver ma27.

Number of nonzeros in equality constraint Jacobian...:     1020
Number of nonzeros in inequality constraint Jacobian.:        0
Number of nonzeros in Lagrangian Hessian.............:     1161

Total number of variables............................:      405
                     variables with only lower bounds:      108
                variables with lower and upper bounds:      243
                     variables with only upper bounds:        0
Total number of equality constraints.................:      402
Total number of inequality constraints...............:        0
        inequality constraints with only lower bounds:        0
   inequality constraints with lower and upper bounds:        0
        inequality constraints with only upper bounds:        0

iter    objective    inf_pr   inf_du lg(mu)  ||d||  lg(rg) alpha_du alpha_pr  ls
   0  0.0000000e+00 1.17e+00 4.44e-16  -1.0 0.00e+00    -  0.00e+00 0.00e+00   0
   1  5.2461179e+00 1.05e+00 4.17e+05  -1.0 4.39e+06    -  5.11e-02 4.78e-02h  3
   2  3.7918030e+01 8.53e-01 8.77e+05  -1.0 4.73e+06    -  4.32e-02 6.81e-02h  3
   3  3.8102632e+01 8.52e-01 8.76e+05  -1.0 1.17e+07    -  7.40e-03 1.98e-04h  9
   4  4.6608252e+01 8.39e-01 3.34e+06  -1.0 9.12e+06  -4.0 4.86e-02 7.74e-03h  5
   5  4.7102945e+01 8.38e-01 3.34e+06  -1.0 6.62e+06  -4.5 1.31e-02 5.09e-04h  8
   6  4.8569397e+01 8.35e-01 3.38e+06  -1.0 7.61e+06  -4.1 2.64e-02 1.37e-03h  7
   7  4.8805793e+01 8.35e-01 3.38e+06  -1.0 7.69e+06  -4.5 1.32e-02 2.49e-04h  9
   8  4.9051066e+01 8.34e-01 3.38e+06  -1.0 1.50e+07    -  3.99e-02 3.88e-04h  7
   9  4.9742934e+01 8.33e-01 3.36e+06  -1.0 7.08e+06    -  5.71e-02 7.84e-04h  7
iter    objective    inf_pr   inf_du lg(mu)  ||d||  lg(rg) alpha_du alpha_pr  ls
  10  5.0990324e+01 8.31e-01 3.35e+06  -1.0 6.99e+06    -  7.51e-02 1.26e-03h  7
  11  3.2230353e+02 6.46e+01 1.58e+08  -1.0 9.17e+06    -  5.87e-02 1.16e-01w  1
  12  7.5154468e+02 6.36e+01 9.04e+09  -1.0 2.15e+08  -5.0 2.71e-03 1.50e-02w  1
  13  6.8008486e+02 5.66e+01 2.99e+11  -1.0 2.01e+07  -2.8 1.15e-02 1.11e-01w  1
  14  5.2944156e+01 8.28e-01 3.35e+06  -1.0 5.27e+06  -2.3 5.87e-02 1.82e-03h  6
  15  5.5545512e+01 8.25e-01 3.36e+06  -1.0 1.02e+07    -  7.62e-02 2.23e-03h  7
  16  5.5729278e+01 8.25e-01 3.36e+06  -1.0 1.08e+07    -  5.89e-02 1.54e-04h 11
  17  5.5832680e+01 8.25e-01 3.36e+06  -1.0 7.90e+06  -2.8 1.11e-01 8.94e-05h 11
  18  1.4411473e+02 7.82e-01 4.46e+09  -1.0 1.22e+07  -2.4 8.93e-02 4.39e-02h  3
MA27BD returned iflag=-4 and requires more memory.
 Increase liw from 16265 to 32530 and la from 18975 to 40758 and factorize again.
  19  1.4454771e+02 7.81e-01 4.46e+09  -1.0 6.23e+06  -2.0 1.87e-02 5.56e-04h  8
iter    objective    inf_pr   inf_du lg(mu)  ||d||  lg(rg) alpha_du alpha_pr  ls
  20  1.4449600e+02 7.81e-01 4.45e+09  -1.0 2.44e+07  -2.4 1.26e-02 7.09e-05f  9
  21  1.4444611e+02 7.81e-01 4.45e+09  -1.0 2.45e+07  -2.9 9.09e-03 3.70e-05f 10
  22  1.8729909e+02 7.45e-01 4.45e+09  -1.0 1.58e+07  -3.4 1.55e-01 1.91e-02h  2
  23  1.9650768e+02 7.61e-01 4.37e+09  -1.0 4.87e+06  -2.1 9.71e-02 8.59e-03h  4
  24  3.1225527e+02 3.80e+00 6.64e+09  -1.0 5.15e+07    -  1.24e-01 1.36e-02w  1
  25  3.1610848e+02 5.44e+00 3.22e+11  -1.0 4.21e+05   1.1 1.20e-01 8.51e-02w  1
  26  3.1758038e+02 5.42e+00 3.21e+11  -1.0 1.02e+06   0.6 2.69e-01 3.92e-03w  1
  27  2.2929425e+02 6.82e-01 4.40e+09  -1.0 7.47e+06   0.1 1.24e-01 6.82e-03h  1
  28  2.3009559e+02 6.82e-01 4.42e+09  -1.0 1.11e+06  -0.4 1.24e-01 2.37e-03h  6
  29  2.3447402e+02 7.01e-01 4.26e+09  -1.0 1.35e+06  -0.8 3.00e-01 8.79e-03h  4
iter    objective    inf_pr   inf_du lg(mu)  ||d||  lg(rg) alpha_du alpha_pr  ls
  30  2.4087955e+02 7.07e-01 4.35e+09  -1.0 3.05e+06  -1.3 9.90e-02 7.68e-03h  4
  31  2.4105070e+02 7.07e-01 4.35e+09  -1.0 4.39e+06  -0.9 6.03e-02 2.38e-04h  9
  32  2.4211726e+02 7.07e-01 6.54e+09  -1.0 1.63e+06   1.3 2.73e-01 1.65e-03h  6
  33  2.4672601e+02 7.16e-01 1.88e+10  -1.0 1.66e+06   0.9 2.66e-01 6.26e-03h  4
  34  2.5251553e+02 7.21e-01 2.59e+10  -1.0 2.07e+06   0.4 3.21e-01 6.23e-03h  4
  35  2.5380850e+02 7.20e-01 2.75e+10  -1.0 2.18e+06   0.8 2.13e-01 1.50e-03h  6
  36  2.5844697e+02 7.26e-01 5.52e+11  -1.0 2.11e+06   2.1 6.90e-01 5.26e-03h  4
  37  2.5952266e+02 7.26e-01 6.28e+11  -1.0 2.40e+06   2.6 4.20e-01 1.19e-03h  6
  38  2.9863746e+02 1.93e+00 3.20e+13  -1.0 2.34e+06   2.1 3.36e-01 4.08e-02w  1
  39  2.9889281e+02 1.93e+00 3.20e+13  -1.0 2.47e+06   1.6 3.73e-01 6.41e-04w  1
iter    objective    inf_pr   inf_du lg(mu)  ||d||  lg(rg) alpha_du alpha_pr  ls
  40  3.3951234e+02 5.92e+00 5.04e+13  -1.0 5.86e+06   1.1 7.50e-01 6.72e-02w  1
  41  2.6068362e+02 7.25e-01 6.50e+11  -1.0 5.92e+06   2.5 3.36e-01 1.27e-03h  5
  42  2.6563056e+02 7.27e-01 9.38e+11  -1.0 2.26e+06   2.0 9.82e-01 5.62e-03h  4
  43  2.6898124e+02 7.28e-01 5.04e+12  -1.0 2.44e+06   3.3 1.63e-01 3.57e-03h  4
  44  2.7213907e+02 7.28e-01 5.89e+12  -1.0 2.45e+06   2.8 9.90e-01 3.26e-03h  4
  45  2.7533578e+02 7.27e-01 5.93e+12  -1.0 2.32e+06   2.4 1.97e-01 3.16e-03h  4
  46  2.7894778e+02 7.25e-01 5.78e+12  -1.0 2.13e+06   1.9 9.90e-01 3.45e-03h  4
  47  2.8375936e+02 7.22e-01 5.53e+12  -1.0 5.31e+06   1.4 3.86e-01 4.59e-03h  4
  48  2.8548898e+02 7.20e-01 5.57e+12  -1.0 1.80e+07   0.9 1.37e-01 1.79e-03h  5
  49  2.8560877e+02 7.20e-01 5.60e+12  -1.0 1.91e+08   0.4 2.38e-03 1.07e-04h  6
iter    objective    inf_pr   inf_du lg(mu)  ||d||  lg(rg) alpha_du alpha_pr  ls
  50  2.8697110e+02 7.19e-01 5.70e+12  -1.0 2.72e+07   0.9 2.10e-02 1.15e-03h  5
  51  3.4636108e+02 3.42e+00 5.78e+13  -1.0 8.58e+06   1.3 6.57e-01 4.15e-02w  1
  52  3.4626038e+02 3.38e+00 1.20e+14  -1.0 2.86e+06   2.6 1.10e-01 2.54e-02w  1
  53  3.4627478e+02 3.38e+00 1.20e+14  -1.0 3.48e+06   3.1 6.58e-02 8.31e-05w  1
  54  2.8967790e+02 7.17e-01 5.75e+12  -1.0 4.41e+06   2.6 6.57e-01 2.59e-03h  4
  55  2.9218177e+02 7.15e-01 5.70e+12  -1.0 1.64e+06   2.1 3.01e-01 3.09e-03h  4
  56  2.9750339e+02 7.10e-01 5.69e+12  -1.0 4.18e+06   1.6 8.69e-01 5.91e-03h  4
  57  2.9846324e+02 7.12e-01 5.88e+12  -1.0 4.58e+07   1.1 2.90e-03 5.15e-04h  5
  58  3.0314659e+02 7.11e-01 6.84e+12  -1.0 7.73e+06   1.6 3.69e-02 4.74e-03h  4
  59  3.0815074e+02 7.06e-01 7.36e+12  -1.0 2.98e+06   2.0 3.92e-01 6.81e-03h  4
iter    objective    inf_pr   inf_du lg(mu)  ||d||  lg(rg) alpha_du alpha_pr  ls
  60  3.1213722e+02 7.03e-01 7.61e+12  -1.0 1.21e+06   2.4 4.27e-01 7.05e-03h  3
  61  3.1317208e+02 7.06e-01 8.25e+12  -1.0 1.72e+07   1.9 3.84e-03 9.31e-04h  5
  62  3.1553966e+02 7.03e-01 8.48e+12  -1.0 1.79e+06   2.4 2.97e-01 4.65e-03h  4
  63  3.1768296e+02 7.01e-01 8.88e+12  -1.0 7.95e+05   2.8 7.62e-01 4.92e-03h  3
  64  3.4857280e+02 2.76e+00 2.32e+14  -1.0 3.36e+06   2.3 1.06e-01 5.94e-02w  1
  65  3.4876878e+02 2.75e+00 2.32e+14  -1.0 4.06e+06   3.6 1.12e-01 1.29e-03w  1
  66  3.4877033e+02 2.75e+00 2.32e+14  -1.0 3.83e+06   3.2 7.48e-02 1.04e-05w  1
  67  3.2103879e+02 6.95e-01 1.20e+13  -1.0 5.09e+06   2.7 1.06e-01 7.42e-03h  3
  68  3.2230562e+02 6.99e-01 2.41e+13  -1.0 1.47e+07   2.2 1.10e-02 4.23e-03h  4
  69  3.2316054e+02 6.99e-01 2.40e+13  -1.0 1.12e+06   2.6 3.02e-01 3.70e-03h  3
iter    objective    inf_pr   inf_du lg(mu)  ||d||  lg(rg) alpha_du alpha_pr  ls
  70  3.2342859e+02 6.96e-01 2.98e+13  -1.0 9.34e+06   2.2 4.98e-02 4.25e-03h  3
  71  3.2407554e+02 6.97e-01 2.97e+13  -1.0 1.02e+06   2.6 5.77e-01 3.51e-03h  2
  72  3.2425941e+02 6.97e-01 3.33e+13  -1.0 5.97e+06   2.1 1.19e-01 3.53e-03h  1
  73  3.2426516e+02 6.97e-01 3.33e+13  -1.0 1.05e+06   2.5 4.21e-01 3.20e-05h  1
  74  3.6351610e+02 5.73e-01 1.40e+15  -1.0 1.73e+07   2.1 4.99e-02 3.28e-02h  1
  75  3.5808604e+02 5.50e-01 1.39e+15  -1.0 1.24e+07    -  2.73e-01 1.12e-02f  3
  76  3.5585745e+02 5.44e-01 1.38e+15  -1.0 1.07e+07    -  8.99e-02 5.74e-03f  4
  77  3.5348162e+02 5.37e-01 1.38e+15  -1.0 1.11e+07    -  5.78e-02 5.59e-03f  4
  78  3.5190755e+02 5.34e-01 1.37e+15  -1.0 1.32e+07    -  3.63e-02 2.57e-03f  5
  79  3.5002417e+02 5.32e-01 1.37e+15  -1.0 1.59e+07    -  2.74e-02 2.33e-03f  5
iter    objective    inf_pr   inf_du lg(mu)  ||d||  lg(rg) alpha_du alpha_pr  ls
  80  3.3408632e+02 3.65e+00 1.40e+15  -1.0 2.17e+07    -  1.91e-02 3.11e-02f  1
  81  3.3439899e+02 3.64e+00 1.40e+15  -1.0 1.29e+07   2.5 9.70e-03 1.29e-03h  5
  82  3.3792453e+02 3.61e+00 1.39e+15  -1.0 3.79e+06   2.9 1.60e-02 1.02e-02h  3
  83  3.4006011e+02 3.56e+00 1.36e+15  -1.0 4.23e+06   3.3 9.55e-03 1.40e-02h  2
  84  3.4910864e+02 3.50e+00 1.34e+15  -1.0 7.15e+06    -  2.70e-02 1.45e-02h  2
  85  3.4989386e+02 3.50e+00 1.34e+15  -1.0 8.29e+06    -  6.35e-02 1.07e-03h  5
  86  3.4994081e+02 3.50e+00 1.34e+15  -1.0 8.59e+06    -  6.94e-02 6.40e-05h  9
  87r 3.4994081e+02 3.50e+00 1.00e+03   0.5 0.00e+00    -  0.00e+00 4.99e-07R 16
  88r 3.4994080e+02 1.82e+01 1.14e+03   0.5 1.21e+04    -  2.11e-02 2.28e-03f  1
  89r 3.4994078e+02 1.81e+01 1.23e+03   0.5 7.67e+02    -  2.50e-02 6.09e-03f  1
iter    objective    inf_pr   inf_du lg(mu)  ||d||  lg(rg) alpha_du alpha_pr  ls
  90r 3.4994078e+02 1.80e+01 1.26e+03   0.5 1.01e+02    -  7.46e-03 1.36e-03f  1
  91r 3.4994078e+02 1.80e+01 1.33e+03   0.5 8.40e+01    -  1.74e-02 1.65e-03f  1
  92r 3.4994080e+02 1.74e+01 1.40e+03   0.5 6.04e+01    -  5.17e-02 3.06e-02f  1
  93r 3.4994083e+02 1.66e+01 1.27e+03   0.5 4.44e+01    -  1.66e-02 4.35e-02f  1
  94r 3.4994085e+02 1.62e+01 1.41e+03   0.5 5.11e+01    -  1.88e-02 2.51e-02f  1
  95r 3.4994086e+02 1.59e+01 1.57e+03   0.5 4.18e+02    -  6.37e-03 1.69e-02f  1
  96r 3.4994087e+02 1.57e+01 1.57e+03   0.5 1.54e+02    -  1.23e-02 1.32e-02f  1
  97r 3.4994089e+02 1.53e+01 1.63e+03   0.5 5.45e+02    -  7.68e-03 2.62e-02f  1
  98r 3.4994089e+02 1.53e+01 1.45e+03   0.5 5.87e+02    -  7.24e-02 4.21e-03f  1
  99r 3.4994090e+02 1.50e+01 1.35e+03   0.5 3.29e+02    -  1.85e-01 1.75e-02f  1
iter    objective    inf_pr   inf_du lg(mu)  ||d||  lg(rg) alpha_du alpha_pr  ls
 100r 3.4994110e+02 1.10e+01 9.92e+02   0.5 1.98e+01    -  2.60e-01 2.66e-01f  1
 101r 3.4994131e+02 5.19e+00 5.68e+02   0.5 1.94e+01    -  3.69e-01 5.27e-01f  1
 102r 3.4994128e+02 2.49e+00 4.89e+02   0.5 8.77e+00    -  3.78e-01 5.21e-01f  1
 103  3.5000223e+02 2.49e+00 3.26e+02  -1.0 1.69e+06    -  6.80e-02 2.07e-04h  1
 104  3.5013176e+02 2.48e+00 1.04e+04  -1.0 2.53e+06    -  1.20e-02 3.78e-04h  1
 105  3.5207565e+02 2.47e+00 8.64e+04  -1.0 2.67e+06    -  1.23e-02 5.46e-03h  3
 106  3.5363344e+02 2.46e+00 1.86e+05  -1.0 2.92e+06    -  1.93e-02 4.35e-03h  3
 107  3.5501192e+02 2.45e+00 3.41e+05  -1.0 4.13e+06    -  2.56e-02 3.46e-03h  3
 108  3.5581655e+02 2.45e+00 4.22e+05  -1.0 9.25e+06    -  4.08e-02 1.38e-03h  4
 109  3.5596625e+02 2.45e+00 4.22e+05  -1.0 7.23e+07    -  6.45e-03 5.52e-05h  7
iter    objective    inf_pr   inf_du lg(mu)  ||d||  lg(rg) alpha_du alpha_pr  ls
 110  3.6515043e+02 2.45e+00 8.01e+05  -1.0 1.85e+08    -  1.16e-03 1.16e-03s 13
 111r 3.6515043e+02 2.45e+00 9.99e+02   0.4 0.00e+00    -  0.00e+00 0.00e+00R  1
 112r 3.6515038e+02 7.71e-01 9.96e+02   0.4 2.16e+03    -  3.85e-03 1.12e-03f  1
 113r 3.6515026e+02 5.68e-01 9.90e+02   0.4 7.19e+02    -  1.43e-02 4.38e-03f  1
 114r 3.6515026e+02 5.68e-01 9.99e+02  -0.2 0.00e+00    -  0.00e+00 2.55e-07R  4
 115r 3.6515015e+02 5.58e-01 9.97e+02  -0.2 6.22e+02    -  1.07e-02 2.43e-03f  1
 116r 3.6514980e+02 5.32e-01 9.86e+02  -0.2 4.20e+02    -  4.20e-02 1.02e-02f  1
 117r 3.6514968e+02 6.19e-01 9.72e+02  -0.2 4.45e+02  -2.0 3.22e-03 1.51e-02f  1
 118r 3.6514959e+02 6.20e-01 9.69e+02  -0.2 1.77e+02    -  4.30e-02 2.64e-03f  1
 119r 3.6514944e+02 6.07e-01 9.36e+02  -0.2 1.07e+02  -1.6 9.34e-03 4.21e-02f  1
iter    objective    inf_pr   inf_du lg(mu)  ||d||  lg(rg) alpha_du alpha_pr  ls
 120r 3.6514944e+02 6.07e-01 9.27e+02  -0.2 3.91e+02  -1.1 2.41e-02 1.19e-03f  1
 121r 3.6514871e+02 6.02e-01 9.07e+02  -0.2 1.78e+02    -  6.72e-02 2.12e-02f  1
 122r 3.6514861e+02 5.76e-01 8.46e+02  -0.2 1.88e+01  -0.7 8.28e-02 1.87e-01f  1
 123r 3.6514861e+02 5.76e-01 8.38e+02  -0.2 2.73e+00   0.6 9.15e-03 7.71e-03f  1
 124r 3.6514861e+02 5.65e-01 9.37e+02  -0.2 9.63e-01   1.0 8.98e-03 1.24e-01h  1
 125r 3.6514860e+02 5.49e-01 6.66e+02  -0.2 2.97e+00   0.6 2.76e-01 1.87e-01h  1
 126r 3.6514860e+02 5.49e-01 9.84e+02  -0.2 5.05e-01   2.8 5.21e-02 5.83e-03h  1
 127r 3.6514860e+02 5.68e-01 1.07e+04  -0.2 5.40e-01   2.3 5.40e-03 4.90e-01h  1
 128r 3.6514860e+02 5.39e-01 1.02e+04  -0.2 3.53e-01   2.7 1.29e-01 5.58e-02f  1
 129r 3.6514860e+02 5.09e-01 9.59e+03  -0.2 1.32e-01   3.2 5.59e-02 1.22e-01h  1
iter    objective    inf_pr   inf_du lg(mu)  ||d||  lg(rg) alpha_du alpha_pr  ls
 130  3.6124515e+02 5.09e-01 7.83e+06  -1.0 1.63e+09    -  5.24e-07 3.72e-05f  1
 131  3.6040305e+02 5.09e-01 8.17e+06  -1.0 1.72e+09    -  9.18e-05 8.10e-06f  1
 132  3.5282339e+02 5.09e-01 3.65e+07  -1.0 1.34e+09    -  1.28e-04 9.51e-05f  1
 133  3.4299905e+02 5.09e-01 6.98e+07  -1.0 9.98e+08    -  2.01e-04 1.85e-04f  1
 134  3.3310743e+02 3.11e+00 5.34e+07  -1.0 8.38e+08    -  1.93e-04 3.60e-04f  1
 135  3.3015639e+02 3.11e+00 6.88e+07  -1.0 7.36e+08    -  2.17e-04 1.76e-04f  1
 136  3.2912854e+02 5.53e+00 1.90e+08  -1.0 8.60e+08    -  9.18e-05 4.57e-04f  2
 137  3.2944411e+02 5.53e+00 1.90e+08  -1.0 1.34e+09    -  2.83e-04 1.16e-05H  1
 138  3.1873804e+02 1.62e+01 1.71e+08  -1.0 5.21e+08    -  1.82e-05 1.98e-04f  1
 139  3.1336807e+02 1.61e+01 1.70e+08  -1.0 1.66e+09    -  7.26e-05 5.33e-05f  1
iter    objective    inf_pr   inf_du lg(mu)  ||d||  lg(rg) alpha_du alpha_pr  ls
 140r 3.1336807e+02 1.61e+01 9.99e+02   1.2 0.00e+00    -  0.00e+00 3.41e-07R  4
 141r 3.1336784e+02 5.74e+00 9.97e+02   1.2 5.23e+03    -  4.05e-03 2.60e-03f  1
 142  3.1058578e+02 2.64e+02 2.33e+06  -1.0 5.25e+07    -  6.99e-07 2.43e-03f  1
 143  3.1029476e+02 2.23e+03 2.30e+12  -1.0 9.53e+06   2.9 1.48e-05 3.05e-04f  1
 144  3.1028331e+02 2.23e+03 2.31e+12  -1.0 9.02e+06   2.4 7.05e-04 1.33e-05H  1
 145  3.1006840e+02 2.13e+02 3.29e+21  -1.0 4.79e+08   1.9 2.42e-10 9.70e-06f  1
 146  3.0909169e+02 2.13e+02 3.29e+21  -1.0 2.05e+07   9.8 6.85e-04 3.82e-04f  1
 147  3.0831489e+02 2.13e+02 6.04e+23  -1.0 2.95e+07   9.3 1.01e-02 7.97e-04f  1
WARNING: Problem in step computation; switching to emergency mode.
 148r 3.0831489e+02 2.13e+02 9.99e+02   2.3 0.00e+00  19.1 0.00e+00 0.00e+00R  1
 149r 3.0831484e+02 7.58e+01 9.94e+02   2.3 3.45e+04    -  1.30e-02 3.98e-03f  1
Error in an AMPL evaluation. Run with "halt_on_ampl_error yes" to see details.
Warning: Cutting back alpha due to evaluation error
iter    objective    inf_pr   inf_du lg(mu)  ||d||  lg(rg) alpha_du alpha_pr  ls
 150  3.0831438e+02 1.59e+02 1.37e+11  -1.0 1.02e+10    -  1.57e-11 1.82e-08f  2
 151  2.9853985e+02 1.59e+02 1.37e+11  -1.0 2.10e+10    -  1.75e-05 2.48e-05f  2
 152  2.9853985e+02 1.58e+02 1.20e+11  -1.0 3.04e+00  10.0 3.35e-01 1.55e-01h  1
 153  2.9857905e+02 1.58e+02 7.75e+18  -1.0 1.17e+06   9.5 1.59e-04 6.31e-04f  3
 154  2.9858004e+02 1.58e+02 7.75e+18  -1.0 1.17e+06   9.0 1.02e-04 1.55e-05H  1
 155  2.9864559e+02 1.58e+02 7.74e+18  -1.0 1.17e+06   8.6 6.96e-05 1.00e-03f  3
 156r 2.9864559e+02 1.58e+02 9.99e+02   2.2 0.00e+00   8.1 0.00e+00 4.47e-07R  9
 157r 2.9864554e+02 1.32e+02 6.09e+03   2.2 5.35e+03    -  1.07e-02 5.40e-03f  1
 158  2.9865733e+02 1.32e+02 8.71e+05  -1.0 7.05e+07    -  1.25e-04 8.51e-05h  2
 159  2.9888512e+02 1.32e+02 8.71e+05  -1.0 1.66e+08    -  3.27e-03 7.43e-05H  1
iter    objective    inf_pr   inf_du lg(mu)  ||d||  lg(rg) alpha_du alpha_pr  ls
 160  2.9890190e+02 1.32e+02 1.70e+14  -1.0 8.39e+05   7.6 4.88e-03 5.32e-04f  3
 161  2.9889079e+02 1.32e+02 1.70e+14  -1.0 3.54e+07   7.1 3.64e-05 4.21e-06f  6
 162  2.9889000e+02 1.32e+02 1.70e+14  -1.0 3.33e+07   6.7 4.30e-05 3.10e-07h 10
 163  2.9888990e+02 1.32e+02 1.70e+14  -1.0 3.32e+07   6.2 4.35e-05 3.91e-08h 13
 164  2.9888259e+02 1.32e+02 1.70e+14  -1.0 3.33e+07   5.7 1.81e-05 2.50e-06f  7
 165  2.9825849e+02 1.32e+02 3.20e+19  -1.0 3.25e+07   5.2 4.70e-05 1.73e-04f  1
 166  2.8096843e+02 1.30e+02 3.23e+19  -1.0 5.92e+07   5.7 3.01e-03 8.51e-03f  1
 167  2.7384759e+02 1.30e+02 3.23e+19  -1.0 3.19e+08    -  5.44e-06 8.90e-04f  3
 168  2.7393275e+02 1.30e+02 3.23e+19  -1.0 1.77e+08    -  2.86e-02 1.21e-04h  6
 169  2.7981764e+02 1.30e+02 3.23e+19  -1.0 1.79e+08    -  2.80e-02 1.89e-03h  2
iter    objective    inf_pr   inf_du lg(mu)  ||d||  lg(rg) alpha_du alpha_pr  ls
 170  2.8164705e+02 1.30e+02 3.23e+19  -1.0 2.57e+08    -  1.58e-02 2.02e-04h  4
 171r 2.8164705e+02 1.30e+02 9.99e+02   2.1 0.00e+00    -  0.00e+00 3.19e-07R 13
 172r 2.8164701e+02 1.02e+02 3.37e+04   2.1 7.83e+03    -  5.27e-02 5.18e-03f  1
 173  2.8105217e+02 1.02e+02 9.94e+01  -1.0 1.32e+07    -  4.88e-03 2.43e-04f  1
 174  2.8127589e+02 1.02e+02 2.49e+02  -1.0 1.77e+08    -  3.35e-03 3.56e-05h  7
 175  2.8143162e+02 1.02e+02 3.12e+02  -1.0 3.16e+08    -  1.75e-03 1.36e-05h 10
 176  2.8283918e+02 1.02e+02 3.47e+02  -1.0 3.84e+08    -  1.44e-03 9.27e-05h  8
 177  3.3637355e+02 1.02e+02 8.19e+05  -1.0 3.94e+08    -  1.53e-03 1.53e-03s 16
 178  3.6603078e+02 5.46e+02 7.21e+06  -1.0 2.46e+07    -  7.54e-03 7.54e-03s 16
 179r 3.6603078e+02 5.46e+02 9.99e+02   2.7 0.00e+00    -  0.00e+00 0.00e+00R  1
iter    objective    inf_pr   inf_du lg(mu)  ||d||  lg(rg) alpha_du alpha_pr  ls
 180r 3.6603071e+02 9.53e+01 1.91e+03   2.7 2.86e+05    -  6.21e-03 1.89e-03f  1
 181r 3.6603045e+02 3.96e+01 3.87e+06   2.7 2.85e+03    -  4.01e-03 1.96e-02f  1
 182  3.5511830e+02 3.95e+01 4.14e+02  -1.0 1.74e+08    -  1.51e-02 2.33e-03f  3
 183  5.2643904e+02 3.91e+01 3.86e+03  -1.0 1.12e+08    -  1.81e-02 8.22e-03h  3
 184  5.2643831e+02 3.91e+01 3.86e+03  -1.0 9.85e+11    -  1.75e-09 3.12e-12f 10
 185r 5.2643831e+02 3.91e+01 9.99e+02   1.6 0.00e+00    -  0.00e+00 7.94e-10R  2
 186r 5.2643835e+02 1.45e+01 9.97e+02   1.6 1.28e+04    -  4.07e-04 3.02e-03f  1
 187  5.8847479e+02 1.45e+01 2.81e+02  -1.0 9.10e+07    -  3.73e-02 2.82e-03H  1
 188r 5.8847479e+02 1.45e+01 9.99e+02   1.2 0.00e+00    -  0.00e+00 2.71e-10R  2
 189r 5.8847479e+02 1.45e+01 1.75e+09   1.2 1.06e+04    -  1.10e-02 1.25e-04f  1
iter    objective    inf_pr   inf_du lg(mu)  ||d||  lg(rg) alpha_du alpha_pr  ls
 190r 5.8847479e+02 1.42e+01 1.23e+05   1.2 7.75e+00   2.4 2.58e-01 9.61e-02f  1
 191r 5.8847479e+02 1.39e+01 1.20e+05   1.2 1.37e+01   1.9 8.53e-02 5.82e-02f  1
 192r 5.8847479e+02 1.38e+01 3.80e+12   1.2 7.26e+00   2.4 2.08e-02 5.14e-03f  1
 193r 5.8847479e+02 1.38e+01 2.41e+05   1.2 1.37e+00   4.1 7.74e-03 3.11e-02f  1
 194r 5.8847479e+02 1.38e+01 1.05e+06   1.2 9.70e+00   3.7 1.83e-02 6.19e-02f  1
 195r 5.8847479e+02 1.38e+01 1.31e+14   1.2 3.33e+00   3.2 1.32e-01 6.28e-02f  1
 196r 5.8847479e+02 1.38e+01 2.66e+20   1.2 2.51e-02  13.0 9.90e-01 2.93e-01H  1
WARNING: Problem in step computation; switching to emergency mode.
 197r 5.8847479e+02 1.38e+01 2.66e+20   1.2 2.51e-02  19.3 0.00e+00 0.00e+00R  1
 198r 5.8847479e+02 1.38e+01 1.47e+10   1.2 3.04e-17  19.7 9.90e-01 1.00e+00   0
 199r 5.8847479e+02 1.38e+01 2.04e+03   1.2 1.18e-16  19.2 9.92e-01 1.00e+00   0
iter    objective    inf_pr   inf_du lg(mu)  ||d||  lg(rg) alpha_du alpha_pr  ls
 200r 5.8847479e+02 1.38e+01 2.22e+03   1.2 3.84e-16  18.8 1.00e+00 1.00e+00   0
 201r 5.8847479e+02 1.38e+01 2.60e+03   1.2 1.35e-15  18.3 1.00e+00 1.00e+00   0
 202r 5.8847479e+02 1.38e+01 1.87e+05   1.2 2.91e-13  17.8 1.00e+00 1.00e+00h  1
 203r 5.8847479e+02 1.38e+01 6.69e+06   1.2 9.96e-13  17.3 1.00e+00 1.00e+00H  1
 204r 5.8847479e+02 1.38e+01 6.17e+06   1.2 2.26e-11  16.9 1.00e+00 6.25e-02h  5
 205r 5.8847479e+02 1.38e+01 1.40e+05   1.2 1.13e-11  16.4 1.00e+00 1.00e+00H  1
 206r 5.8847479e+02 1.38e+01 1.47e+05   1.2 1.85e-11  15.9 1.00e+00 1.00e+00h  1
 207r 5.8847479e+02 1.38e+01 5.82e+04   1.2 2.20e-11  15.4 1.00e+00 1.00e+00h  1
 208r 5.8847479e+02 1.38e+01 5.82e+04   1.2 1.07e-07  14.9 1.00e+00 6.10e-05h 15
 209r 5.8847479e+02 1.38e+01 5.82e+04   1.2 8.20e-08  14.5 1.00e+00 3.81e-06h 19
iter    objective    inf_pr   inf_du lg(mu)  ||d||  lg(rg) alpha_du alpha_pr  ls
 210r 5.8847479e+02 1.38e+01 5.82e+04   1.2 1.64e-07  14.0 0.00e+00 4.77e-07R 22
 211r 5.8847479e+02 1.38e+01 5.81e+04   1.2 4.85e-11  13.5 1.00e+00 9.77e-04f 11
 212r 5.8847479e+02 1.38e+01 5.81e+04   1.2 1.45e-10  13.0 1.00e+00 1.53e-05h 17
 213r 5.8847479e+02 1.38e+01 5.81e+04   1.2 4.36e-10  12.6 1.00e+00 9.54e-07h 21
 214r 5.8847479e+02 1.38e+01 5.81e+04   1.2 1.31e-09  12.1 1.00e+00 2.44e-04h 13
 215r 5.8847479e+02 1.38e+01 5.81e+04   1.2 3.93e-09  11.6 1.00e+00 3.81e-06h 19
 216r 5.8847479e+02 1.38e+01 7.08e+03   1.2 1.18e-08  11.1 1.00e+00 1.00e+00f  1
 217r 5.8847479e+02 1.38e+01 3.29e+13   1.2 1.39e-07  10.7 1.00e+00 1.00e+00f  1
WARNING: Problem in step computation; switching to emergency mode.
 218r 5.8847479e+02 1.38e+01 3.29e+13   1.2 1.39e-07  18.9 0.00e+00 0.00e+00R  1
WARNING: Problem in step computation; switching to emergency mode.
Restoration phase is called at point that is almost feasible,
  with constraint violation 0.000000e+00. Abort.
Restoration phase in the restoration phase failed.

Number of Iterations....: 218

                                   (scaled)                 (unscaled)
Objective...............:   5.8847478750472294e+02    5.8847478750472294e+02
Dual infeasibility......:   3.2896882964425797e+13    3.2896882964425797e+13
Constraint violation....:   1.3794108223132822e+01    1.3794108223132822e+01
Complementarity.........:   1.4475506655525594e+01    1.4475506655525594e+01
Overall NLP error.......:   6.3430090516918770e+12    3.2896882964425797e+13


Number of objective function evaluations             = 965
Number of objective gradient evaluations             = 159
Number of equality constraint evaluations            = 967
Number of inequality constraint evaluations          = 0
Number of equality constraint Jacobian evaluations   = 229
Number of inequality constraint Jacobian evaluations = 0
Number of Lagrangian Hessian evaluations             = 219
Total CPU secs in IPOPT (w/o function evaluations)   =      0.763
Total CPU secs in NLP function evaluations           =      8.540

EXIT: Restoration Failed!
